NAME          ClpDefau  FREE
ROWS
 N  OBJROW
 L  ZMUNI1_PCT
 L  ZMUNI2_PCT
 L  ZMUNI3_PCT
 L  ZMUNI4_PCT
 L  ZMUNI5_PCT
 L  ZMUNI6_PCT
 L  ZMUNI7_PCT
 L  ZMUNI8_PCT
 L  ZMUNI9_PCT
COLUMNS
    QMUNI1 OBJROW 1.          
    QMUNI1 ZMUNI1_PCT 31463.8137  
    QMUNI1 ZMUNI2_PCT 2169.9905   
    QMUNI1 ZMUNI3_PCT 4698.5627   
    QMUNI1 ZMUNI4_PCT 3434.9441   
    QMUNI1 ZMUNI5_PCT 595.0928    
    QMUNI1 ZMUNI6_PCT 815.0101    
    QMUNI1 ZMUNI7_PCT 3401.1841   
    QMUNI1 ZMUNI8_PCT 2381.134    
    QMUNI1 ZMUNI9_PCT 1469.8029   
    QMUNI2 OBJROW 1.          
    QMUNI2 ZMUNI1_PCT 1885.4141   
    QMUNI2 ZMUNI2_PCT 36520.5764  
    QMUNI2 ZMUNI3_PCT 2680.7785   
    QMUNI2 ZMUNI4_PCT 2811.8133   
    QMUNI2 ZMUNI5_PCT  -210.3805  
    QMUNI2 ZMUNI6_PCT  -102.9968  
    QMUNI2 ZMUNI7_PCT 1210.4034   
    QMUNI2 ZMUNI8_PCT 1306.1523   
    QMUNI2 ZMUNI9_PCT 1254.2725   
    QMUNI3 OBJROW 1.          
    QMUNI3 ZMUNI1_PCT 4485.7025   
    QMUNI3 ZMUNI2_PCT 2884.674    
    QMUNI3 ZMUNI3_PCT 32242.0121  
    QMUNI3 ZMUNI4_PCT 5290.0314   
    QMUNI3 ZMUNI5_PCT 18.3106     
    QMUNI3 ZMUNI6_PCT 212.2879    
    QMUNI3 ZMUNI7_PCT 2311.7065   
    QMUNI3 ZMUNI8_PCT 1829.9103   
    QMUNI3 ZMUNI9_PCT 1121.521    
    QMUNI4 OBJROW 1.          
    QMUNI4 ZMUNI1_PCT 3779.0298   
    QMUNI4 ZMUNI2_PCT 3528.4042   
    QMUNI4 ZMUNI3_PCT 5978.2028   
    QMUNI4 ZMUNI4_PCT 112255.6686 
    QMUNI4 ZMUNI5_PCT 282.0969    
    QMUNI4 ZMUNI6_PCT 452.0417    
    QMUNI4 ZMUNI7_PCT 2333.8318   
    QMUNI4 ZMUNI8_PCT 1953.5065   
    QMUNI4 ZMUNI9_PCT 1525.116    
    QMUNI5 OBJROW 1.          
    QMUNI5 ZMUNI1_PCT 388.3361    
    QMUNI5 ZMUNI2_PCT 253.4866    
    QMUNI5 ZMUNI3_PCT 326.7289    
    QMUNI5 ZMUNI4_PCT 277.3285    
    QMUNI5 ZMUNI5_PCT 38377.1897  
    QMUNI5 ZMUNI6_PCT 2922.6304   
    QMUNI5 ZMUNI7_PCT 732.8033    
    QMUNI5 ZMUNI8_PCT 450.1343    
    QMUNI5 ZMUNI9_PCT 398.2544    
    QMUNI6 OBJROW 1.          
    QMUNI6 ZMUNI1_PCT 581.932     
    QMUNI6 ZMUNI2_PCT 351.715     
    QMUNI6 ZMUNI3_PCT 485.8017    
    QMUNI6 ZMUNI4_PCT 380.1346    
    QMUNI6 ZMUNI5_PCT 3273.3918   
    QMUNI6 ZMUNI6_PCT 35529.5182  
    QMUNI6 ZMUNI7_PCT 1283.2642   
    QMUNI6 ZMUNI8_PCT 872.8027    
    QMUNI6 ZMUNI9_PCT 889.206     
    QMUNI7 OBJROW 1.          
    QMUNI7 ZMUNI1_PCT 1642.7993   
    QMUNI7 ZMUNI2_PCT 966.835     
    QMUNI7 ZMUNI3_PCT 1434.5169   
    QMUNI7 ZMUNI4_PCT 1126.8616   
    QMUNI7 ZMUNI5_PCT 266.0752    
    QMUNI7 ZMUNI6_PCT 503.7308    
    QMUNI7 ZMUNI7_PCT 42081.8329  
    QMUNI7 ZMUNI8_PCT 2743.5303   
    QMUNI7 ZMUNI9_PCT 843.8111    
    QMUNI8 OBJROW 1.          
    QMUNI8 ZMUNI1_PCT 1705.3604   
    QMUNI8 ZMUNI2_PCT 1496.6964   
    QMUNI8 ZMUNI3_PCT 1710.5103   
    QMUNI8 ZMUNI4_PCT 1409.9121   
    QMUNI8 ZMUNI5_PCT 535.965     
    QMUNI8 ZMUNI6_PCT 671.959     
    QMUNI8 ZMUNI7_PCT 4063.0341   
    QMUNI8 ZMUNI8_PCT 33812.3321  
    QMUNI8 ZMUNI9_PCT 2324.6766   
    QMUNI9 OBJROW 1.          
    QMUNI9 ZMUNI1_PCT 643.9209    
    QMUNI9 ZMUNI2_PCT 883.2931    
    QMUNI9 ZMUNI3_PCT 706.6727    
    QMUNI9 ZMUNI4_PCT 608.6349    
    QMUNI9 ZMUNI5_PCT 366.7832    
    QMUNI9 ZMUNI6_PCT 373.6496    
    QMUNI9 ZMUNI7_PCT 1176.8341   
    QMUNI9 ZMUNI8_PCT 1482.7728   
    QMUNI9 ZMUNI9_PCT 33388.9008  
RHS
    RHS ZMUNI1_PCT 1.0993067809
    RHS ZMUNI2_PCT  -0.47334542
    RHS ZMUNI3_PCT -0.073587995
    RHS ZMUNI4_PCT  -3.89179748
    RHS ZMUNI5_PCT  -1.13735011
    RHS ZMUNI6_PCT  -0.23402706
    RHS ZMUNI7_PCT 0.0140955622
    RHS ZMUNI8_PCT 0.762989452 
    RHS ZMUNI9_PCT 3.1392824066
BOUNDS
 LO BOUND QMUNI1 -0.000517635
 UP BOUND QMUNI1      1.1e+10
 LO BOUND QMUNI2 -0.000402786
 UP BOUND QMUNI2      1.1e+10
 LO BOUND QMUNI3 -0.000463059
 UP BOUND QMUNI3      1.1e+10
 LO BOUND QMUNI4 -0.000195539
 UP BOUND QMUNI4      1.1e+10
 LO BOUND QMUNI5 -0.000292564
 UP BOUND QMUNI5      1.1e+10
 LO BOUND QMUNI6 -0.000397077
 UP BOUND QMUNI6      1.1e+10
 LO BOUND QMUNI7  -8.70798e-6
 UP BOUND QMUNI7      1.1e+10
 LO BOUND QMUNI8 -0.000178625
 UP BOUND QMUNI8      1.1e+10
 LO BOUND QMUNI9 -0.000126615
 UP BOUND QMUNI9      1.1e+10
ENDATA
